(declare-fun a () Bool)
(declare-fun b () Bool)
(assume (not a) b)
(declare-fun c () Bool)
(assume (not b) c)
(declare-fun d () Bool)
(assume (not c) d)
(assume (not a) (not d))
(assume a b)
(assume a (not d))
(declare-fun rup () Proof)
(infer b rup)
(infer c rup)
(infer d rup)
(infer (not a) rup)
(infer rup)
